25 40
1 2 5
1 6 5
2 3 1
2 7 3
3 4 5
3 8 5
4 5 1
4 9 5
5 10 1
6 7 4
6 11 2
7 8 1
7 12 1
8 9 3
8 13 4
9 10 3
9 14 3
10 15 2
11 12 2
11 16 1
12 13 3
12 17 4
13 14 3
13 18 1
14 15 1
14 19 2
15 20 2
16 17 4
16 21 3
17 18 3
17 22 3
18 19 5
18 23 3
19 20 2
19 24 1
20 25 5
21 22 5
22 23 2
23 24 3
24 25 4
